p cnf 7230 16
-2346 -3008 -3011 0
-3009 3011 0
2340 -3013 0
-2340 -2348 -3012 0
3012 3013 0
3008 3009 0
3006 3007 0
2336 -3007 0
-2336 -3006 0
2348 -3013 0
2346 -3009 0
3010 3011 0
2338 -3011 0
-2338 -3010 0
3004 3005 0
2340 -3015 0
